21
3 36 53 15 
3 12 30 35 
3 45 13 14 
3 60 59 48 
3 12 16 54 
3 23 44 19 
2 22 1 
3 50 57 28 
3 7 20 6 
2 49 10 
3 18 56 8 
3 32 3 51 
3 2 58 38 
3 28 33 17 
3 59 29 4 
3 21 29 26 
3 16 40 17 
3 34 41 33 
2 55 54 
3 39 24 46 
3 9 47 37 
